
data; 

param T := 20;	# the equivalent minutes of a time slice
param H := 72;	# number of time slices, and T * H = 1440 minutes
param M := 3;	# number of activities, 0:home, 1:work, 2:shopping
param N :=  50;	# number of individuals
param beta :=   0.95;	# discount ratio of future utility

# include the simulated states and choices
include MarkovActvMC.dat

# simulated travel time
param travelTime:
		1	2	3 :=
	1	0	2	1
	2	2	0	2
	3	1	2	0
;

param lambda :=
	1	1.0
	2	1.0
	3	1.0
;

param initValueOfTime :=  0.0;
param initEV :=   10.0;

param initU0 :=
	1	1.0
	2	0.0
	3	0.0
;
param initUm :=
	1	400
	2	1000
	3	450
;
param initGamma :=
	1	-0.008
	2	0.01
	3	0.01
;
param initXi :=
	1	720
	2	720
	3	1110
;
